MSW01
Position Depot: Random
Horizon for Depot: Small
Position of customers: Mixt
Distribution of the demand: Medium
Width of time windows: Wide
Distribution of the service: Small

VEHICLE 
NUMBER 	 CAPACITY 
 6 	 	 171 
 
CUSTOMER
CUST NO. 	 XCOORD.  	 YCOORD. 	 DEMAND 	 READY TIME 	 DUE DATE 	 SERVICE TIME 
 0 	 	 36 	 	 515 	 	 0 	 	 0 	 	 1976 	 	 0 
  1 	 	 796 	 	 186 	 	 5 	 	 512 	 	 944 	 	 50 
  2 	 	 156 	 	 991 	 	 4 	 	 1458 	 	 1756 	 	 51 
  3 	 	 294 	 	 220 	 	 5 	 	 1054 	 	 1276 	 	 51 
  4 	 	 713 	 	 731 	 	 60 	 	 1197 	 	 1434 	 	 99 
  5 	 	 448 	 	 504 	 	 10 	 	 143 	 	 466 	 	 87 
  6 	 	 895 	 	 150 	 	 10 	 	 781 	 	 1083 	 	 75 
  7 	 	 763 	 	 258 	 	 8 	 	 811 	 	 1057 	 	 60 
  8 	 	 397 	 	 622 	 	 5 	 	 1690 	 	 1897 	 	 93 
  9 	 	 325 	 	 252 	 	 5 	 	 1510 	 	 1976 	 	 56 
  10 	 	 97 	 	 959 	 	 6 	 	 1082 	 	 1473 	 	 90 
  11 	 	 269 	 	 238 	 	 9 	 	 877 	 	 1116 	 	 61 
  12 	 	 818 	 	 127 	 	 3 	 	 512 	 	 960 	 	 86 
  13 	 	 222 	 	 999 	 	 8 	 	 1516 	 	 1822 	 	 80 
  14 	 	 877 	 	 314 	 	 3 	 	 1760 	 	 1960 	 	 96 
  15 	 	 303 	 	 290 	 	 2 	 	 1283 	 	 1781 	 	 99 
  16 	 	 159 	 	 1000 	 	 4 	 	 849 	 	 1181 	 	 81 
  17 	 	 869 	 	 211 	 	 3 	 	 754 	 	 1169 	 	 89 
  18 	 	 211 	 	 221 	 	 9 	 	 879 	 	 1167 	 	 100 
  19 	 	 772 	 	 810 	 	 3 	 	 418 	 	 872 	 	 55 
  20 	 	 559 	 	 516 	 	 1 	 	 1490 	 	 1816 	 	 51 
  21 	 	 936 	 	 263 	 	 6 	 	 757 	 	 1028 	 	 80 
  22 	 	 817 	 	 96 	 	 1 	 	 548 	 	 974 	 	 52 
  23 	 	 430 	 	 489 	 	 1 	 	 878 	 	 1338 	 	 88 
  24 	 	 274 	 	 226 	 	 9 	 	 1072 	 	 1470 	 	 61 
  25 	 	 998 	 	 627 	 	 8 	 	 1616 	 	 1840 	 	 72 
  26 	 	 169 	 	 264 	 	 7 	 	 497 	 	 886 	 	 90 
  27 	 	 43 	 	 935 	 	 5 	 	 393 	 	 755 	 	 51 
  28 	 	 738 	 	 306 	 	 8 	 	 1655 	 	 1976 	 	 65 
  29 	 	 741 	 	 169 	 	 9 	 	 551 	 	 970 	 	 67 
  30 	 	 708 	 	 831 	 	 1 	 	 1596 	 	 1922 	 	 60 
  31 	 	 189 	 	 325 	 	 3 	 	 481 	 	 741 	 	 69 
  32 	 	 407 	 	 486 	 	 7 	 	 1348 	 	 1588 	 	 70 
  33 	 	 685 	 	 701 	 	 6 	 	 263 	 	 753 	 	 56 
  34 	 	 537 	 	 468 	 	 4 	 	 299 	 	 553 	 	 68 
  35 	 	 500 	 	 449 	 	 7 	 	 1519 	 	 1976 	 	 61 
  36 	 	 746 	 	 773 	 	 6 	 	 1374 	 	 1770 	 	 63 
  37 	 	 290 	 	 172 	 	 10 	 	 849 	 	 1059 	 	 76 
  38 	 	 102 	 	 927 	 	 69 	 	 1112 	 	 1360 	 	 51 
  39 	 	 774 	 	 770 	 	 10 	 	 504 	 	 858 	 	 83 
  40 	 	 621 	 	 793 	 	 1 	 	 338 	 	 712 	 	 50 
  41 	 	 707 	 	 722 	 	 3 	 	 1453 	 	 1811 	 	 86 
  42 	 	 236 	 	 212 	 	 4 	 	 1668 	 	 1976 	 	 100 
  43 	 	 810 	 	 204 	 	 10 	 	 1631 	 	 1976 	 	 100 
  44 	 	 685 	 	 729 	 	 4 	 	 687 	 	 1094 	 	 69 
  45 	 	 452 	 	 544 	 	 3 	 	 911 	 	 1255 	 	 59 
  46 	 	 287 	 	 101 	 	 5 	 	 323 	 	 532 	 	 76 
  47 	 	 841 	 	 198 	 	 4 	 	 1288 	 	 1695 	 	 58 
  48 	 	 946 	 	 98 	 	 2 	 	 682 	 	 1101 	 	 81 
  49 	 	 793 	 	 182 	 	 7 	 	 590 	 	 909 	 	 54 
  50 	 	 482 	 	 491 	 	 10 	 	 538 	 	 981 	 	 86 
  51 	 	 483 	 	 465 	 	 8 	 	 199 	 	 494 	 	 78 
  52 	 	 295 	 	 886 	 	 3 	 	 756 	 	 1181 	 	 98 
  53 	 	 505 	 	 150 	 	 7 	 	 1012 	 	 1352 	 	 75 
  54 	 	 95 	 	 994 	 	 1 	 	 868 	 	 1208 	 	 58 
  55 	 	 532 	 	 586 	 	 2 	 	 331 	 	 551 	 	 90 
  56 	 	 242 	 	 996 	 	 7 	 	 1254 	 	 1504 	 	 74 
  57 	 	 460 	 	 49 	 	 10 	 	 1362 	 	 1678 	 	 92 
  58 	 	 722 	 	 481 	 	 1 	 	 620 	 	 941 	 	 66 
  59 	 	 134 	 	 775 	 	 2 	 	 1056 	 	 1336 	 	 98 
  60 	 	 994 	 	 457 	 	 10 	 	 1178 	 	 1518 	 	 56 
  61 	 	 618 	 	 288 	 	 6 	 	 744 	 	 1002 	 	 55 
  62 	 	 566 	 	 570 	 	 4 	 	 1022 	 	 1229 	 	 70 
  63 	 	 443 	 	 258 	 	 7 	 	 1152 	 	 1373 	 	 97 
  64 	 	 808 	 	 323 	 	 3 	 	 620 	 	 875 	 	 85 
  65 	 	 574 	 	 88 	 	 8 	 	 259 	 	 755 	 	 65 
  66 	 	 682 	 	 972 	 	 10 	 	 1576 	 	 1807 	 	 62 
  67 	 	 650 	 	 571 	 	 9 	 	 874 	 	 1268 	 	 96 
  68 	 	 165 	 	 891 	 	 6 	 	 158 	 	 502 	 	 59 
  69 	 	 227 	 	 185 	 	 8 	 	 1201 	 	 1511 	 	 86 
  70 	 	 558 	 	 0 	 	 78 	 	 684 	 	 1152 	 	 89 
  71 	 	 642 	 	 355 	 	 1 	 	 1369 	 	 1799 	 	 58 
  72 	 	 657 	 	 904 	 	 3 	 	 556 	 	 806 	 	 93 
  73 	 	 111 	 	 754 	 	 5 	 	 147 	 	 377 	 	 53 
  74 	 	 472 	 	 447 	 	 2 	 	 276 	 	 686 	 	 61 
  75 	 	 459 	 	 285 	 	 82 	 	 209 	 	 529 	 	 83 
  76 	 	 248 	 	 342 	 	 71 	 	 153 	 	 583 	 	 59 
  77 	 	 347 	 	 258 	 	 8 	 	 254 	 	 722 	 	 61 
  78 	 	 463 	 	 799 	 	 5 	 	 699 	 	 1070 	 	 61 
  79 	 	 638 	 	 922 	 	 7 	 	 1034 	 	 1474 	 	 61 
  80 	 	 446 	 	 78 	 	 8 	 	 383 	 	 809 	 	 97 
  81 	 	 283 	 	 90 	 	 99 	 	 476 	 	 944 	 	 60 
  82 	 	 345 	 	 804 	 	 98 	 	 1257 	 	 1706 	 	 97 
  83 	 	 634 	 	 193 	 	 1 	 	 573 	 	 882 	 	 86 
  84 	 	 271 	 	 139 	 	 5 	 	 1613 	 	 1976 	 	 84 
  85 	 	 72 	 	 907 	 	 9 	 	 1553 	 	 1976 	 	 96 
  86 	 	 556 	 	 975 	 	 3 	 	 919 	 	 1386 	 	 54 
  87 	 	 94 	 	 244 	 	 10 	 	 1410 	 	 1614 	 	 86 
  88 	 	 366 	 	 585 	 	 4 	 	 117 	 	 371 	 	 83 
  89 	 	 111 	 	 366 	 	 7 	 	 533 	 	 1012 	 	 100 
  90 	 	 491 	 	 46 	 	 1 	 	 905 	 	 1286 	 	 63 
  91 	 	 103 	 	 65 	 	 63 	 	 1338 	 	 1684 	 	 99 
  92 	 	 281 	 	 328 	 	 10 	 	 -98 	 	 339 	 	 77 
  93 	 	 857 	 	 770 	 	 7 	 	 589 	 	 945 	 	 84 
  94 	 	 33 	 	 148 	 	 3 	 	 846 	 	 1256 	 	 75 
  95 	 	 649 	 	 557 	 	 1 	 	 1717 	 	 1925 	 	 79 
  96 	 	 457 	 	 414 	 	 8 	 	 1030 	 	 1285 	 	 75 
  97 	 	 552 	 	 380 	 	 9 	 	 146 	 	 586 	 	 94 
  98 	 	 658 	 	 663 	 	 7 	 	 1230 	 	 1442 	 	 67 
  99 	 	 712 	 	 173 	 	 9 	 	 1135 	 	 1473 	 	 77 
  100 	 	 460 	 	 799 	 	 9 	 	 695 	 	 913 	 	 85 
 